python/teste/teste7
3 3
0 6 2 3 1 4
2 5 0 5 1 3
0 1 2 5 1 4
